35
2 0 3
2 1 1
3 1 2
4 1 5
5 0 5
5 1 5
5 3 2
5 4 3
6 0 1
6 1 5
6 2 2
6 4 5
7 1 4
7 3 3
7 5 1
7 6 2
8 2 3
8 4 4
8 5 4
8 6 4
8 7 2
9 0 1
9 1 2
9 2 3
9 3 4
9 6 4
9 7 1
10 1 3
10 3 1
10 8 3
10 9 5
11 3 2
11 4 1
11 5 5
11 6 1
11 9 4
11 10 4
12 1 4
12 5 5
12 6 1
12 7 4
12 10 4
12 11 4
13 1 1
13 3 2
13 7 1
13 9 1
13 10 4
13 11 1
13 12 5
14 0 3
14 3 5
14 4 3
14 5 3
14 7 1
14 10 5
14 11 2
14 13 2
15 0 3
15 1 2
15 6 1
15 10 2
15 14 3
16 0 5
16 3 1
16 8 3
16 9 3
16 10 5
16 14 1
17 0 5
17 1 1
17 6 3
17 8 2
17 12 3
17 15 2
18 0 1
18 1 1
18 3 1
18 4 1
18 11 5
18 13 2
18 17 2
19 8 5
19 10 5
19 14 3
19 15 4
19 16 5
20 1 4
20 2 3
20 3 3
20 5 2
20 7 1
20 8 1
20 11 4
20 12 4
20 13 5
20 14 3
20 15 5
20 17 2
21 0 1
21 1 4
21 5 2
21 9 1
21 10 1
21 11 1
21 12 1
21 14 2
21 15 2
21 18 3
21 20 2
22 0 1
22 1 1
22 2 3
22 8 3
22 9 2
22 10 4
22 11 1
22 14 3
22 16 5
22 18 5
22 20 3
23 0 1
23 3 1
23 7 1
23 9 3
23 10 1
23 11 1
23 12 4
23 13 3
23 15 1
23 16 4
23 17 1
23 20 4
23 22 3
24 1 3
24 2 2
24 4 1
24 5 1
24 7 1
24 12 2
24 14 2
24 15 2
24 16 1
24 18 4
24 23 5
25 4 1
25 6 3
25 7 4
25 8 3
25 9 1
25 12 5
25 13 2
25 16 4
25 20 4
25 21 5
25 22 1
25 24 3
26 2 2
26 3 2
26 5 2
26 6 2
26 7 5
26 8 4
26 9 5
26 10 3
26 11 3
26 15 2
26 17 3
26 18 3
26 20 3
26 21 4
26 23 4
27 0 5
27 1 5
27 2 5
27 3 5
27 4 3
27 7 2
27 8 5
27 12 4
27 14 4
27 15 2
27 16 2
27 17 2
27 19 5
27 21 3
27 22 2
27 26 2
28 0 5
28 1 2
28 2 2
28 3 1
28 5 2
28 8 3
28 10 5
28 14 4
28 18 2
28 21 3
28 23 3
28 24 5
28 25 4
28 27 5
29 0 4
29 4 2
29 6 5
29 7 4
29 9 4
29 12 1
29 14 5
29 16 2
29 17 3
29 20 3
29 24 2
29 27 3
30 1 1
30 3 3
30 4 2
30 7 3
30 9 4
30 10 3
30 11 1
30 14 5
30 15 2
30 17 3
30 18 2
30 19 3
30 21 1
30 23 5
30 26 1
30 27 5
30 28 4
31 0 1
31 2 5
31 3 4
31 4 4
31 5 1
31 6 1
31 9 3
31 10 1
31 13 3
31 14 4
31 16 1
31 20 4
31 21 2
31 25 3
31 28 2
31 29 2
31 30 5
32 0 1
32 1 2
32 3 2
32 4 1
32 5 3
32 7 4
32 9 1
32 14 3
32 16 1
32 17 3
32 18 2
32 19 3
32 23 5
32 25 3
32 26 3
32 27 3
32 28 3
32 29 5
33 3 3
33 4 2
33 6 1
33 15 1
33 17 5
33 19 5
33 20 2
33 21 4
33 23 4
33 24 2
33 28 3
33 29 2
33 30 3
33 31 1
33 32 4
34 1 3
34 5 2
34 7 3
34 8 5
34 11 4
34 12 2
34 15 3
34 17 5
34 18 1
34 19 5
34 23 1
34 24 2
34 32 1
